1696.71
0 15 20 71 47 49 44 9 11 0
0 21 69 25 72 38 34 45 6 0
0 64 42 41 40 31 17 0
0 29 57 5 61 33 67 26 0
0 8 19 32 16 63 2 75 0
0 58 65 54 70 48 73 4 46 0
0 35 53 7 12 50 3 51 68 37 0
0 24 55 59 14 13 27 36 74 0
0 66 10 39 18 1 22 60 0
0 23 56 43 62 28 30 52 0
